80735339810721661015010,2,1,2,03,10,1,2,04,1,1,2,04,14,1,2,04,12,1,2,07,14,1,2,013,3,1,2,05,1,1,2,012,14,1,2,07,10,1,2,01,14,1,2,06,2,1,2,09,14,1,2,012,4,1,2,011,12,1,2,012,15,1,2,06,13,1,2,015,14,1,2,06,1,1,2,04,13,1,2,011,10,1,2,011,9,1,2,03,13,1,2,09,1,1,2,05,15,1,2,08,14,1,2,04,11,1,2,013,3,1,2,010,5,1,2,011,15,1,2,012,7,1,2,012,6,1,2,010,7,1,2,010,3,1,2,015,7,1,2,01,4,1,2,08,2,1,2,013,10,1,2,01,10,1,2,03,13,1,2,07,6,1,2,012,8,1,2,06,15,1,2,04,13,1,2,05,11,1,2,013,1,1,2,05,2,1,2,08,8,1,2,03,7,1,2,015,13,1,2,0